NAME: tsp20-7
TYPE: TSP
DIMENSION: 20
EDGE_WEIGHT_TYPE: EUC_2D
NODE_COORD_SECTION
0 44 94
1 40 73
2 49 18
3 37 3
4 45 22
5 1 17
6 13 50
7 0 74
8 98 97
9 23 97
10 17 52
11 6 12
12 49 10
13 72 28
14 44 80
15 5 100
16 24 84
17 46 13
18 70 37
19 27 62
EOF